<number of tasks>
50

<cycle time>
1000

<order strength>
0.595


<task times>
1 93
2 93
3 181
4 40
5 59
6 60
7 81
8 51
9 43
10 206
11 136
12 84
13 379
14 244
15 26
16 93
17 89
18 88
19 53
20 106
21 362
22 70
23 55
24 132
25 75
26 52
27 123
28 112
29 33
30 193
31 92
32 158
33 134
34 161
35 34
36 130
37 265
38 313
39 195
40 244
41 197
42 224
43 79
44 61
45 144
46 113
47 247
48 189
49 114
50 155

<precedence relations>
1,9
2,9
3,9
4,9
5,7
5,8
5,9
5,10
5,11
5,12
6,7
6,11
6,12
6,13
6,14
7,39
8,39
9,15
9,16
9,17
9,18
10,27
11,20
11,28
12,19
12,25
13,19
13,29
14,19
14,21
14,35
15,25
15,36
16,20
16,41
17,20
17,26
17,29
17,36
18,21
18,25
19,20
19,22
19,23
19,24
20,39
21,39
22,27
23,27
24,27
25,26
25,28
25,29
26,39
27,30
27,31
27,32
27,33
27,34
28,38
28,40
29,35
31,36
32,37
33,38
33,40
34,38
35,37
36,39
37,39
37,40
37,41
38,39
38,41
39,42
39,43
39,44
39,45
39,46
41,49
42,48
43,47
44,48
45,50
46,48
47,49
48,49
48,50

<end>
